41940
1 0 0 1 0 1 1 1 1 0 0 1 0 1 0 0 0 0 1 1 1 0 0 0 1 1 1 1 1 0 
18 19 24 27 5 25 5 28 18 28 26 28 13 3 28 18 3 20 18 0 18 24 5 24 13 18 27 19 26 5 19 19 26 24 27 6 20 8 27 24 18 8 6 26 8 19 13 24 19 8 24 24 27 24 8 6 25 8 18 25 26 0 7 8 3 11 13 19 19 25 7 6 6 8 5 13 20 13 8 24 13 0 26 25 26 13 6 5 27 7 28 6 25 25 0 3 11 6 0 28 28 24 25 7 6 0 6 27 18 3 19 6 18 6 11 8 11 7 28 8 26 11 28 19 20 24 5 11 26 28 11 24 25 20 13 8 3 3 28 20 11 18 11 11 25 5 27 27 18 25 27 28 13 0 8 11 5 24 3 13 13 28 20 0 5 27 5 26 3 24 3 20 19 20 26 0 0 20 26 20 5 5 0 19 11 8 11 13 28 24 0 24 6 6 7 25 7 24 20 19 
